p cnf 16 538
-13 -9 -5 0
-13 -9 -1 0
-13 -9 -2 0
-13 -5 -9 0
-13 -5 -1 0
-13 -5 -2 0
-13 -1 -9 0
-13 -1 -5 0
-13 -1 -2 0
-13 -2 -9 0
-13 -2 -5 0
-13 -2 -1 0
-9 -13 -5 0
-9 -13 -1 0
-9 -13 -2 0
-9 -5 -13 0
-9 -5 -1 0
-9 -5 -2 0
-9 -1 -13 0
-9 -1 -5 0
-9 -1 -2 0
-9 -2 -13 0
-9 -2 -5 0
-9 -2 -1 0
-5 -13 -9 0
-5 -13 -1 0
-5 -13 -2 0
-5 -9 -13 0
-5 -9 -1 0
-5 -9 -2 0
-5 -1 -13 0
-5 -1 -9 0
-5 -1 -2 0
-5 -2 -13 0
-5 -2 -9 0
-5 -2 -1 0
-1 -13 -9 0
-1 -13 -5 0
-1 -13 -2 0
-1 -9 -13 0
-1 -9 -5 0
-1 -9 -2 0
-1 -5 -13 0
-1 -5 -9 0
-1 -5 -2 0
-1 -2 -13 0
-1 -2 -9 0
-1 -2 -5 0
-2 -13 -9 0
-2 -13 -5 0
-2 -13 -1 0
-2 -9 -13 0
-2 -9 -5 0
-2 -9 -1 0
-2 -5 -13 0
-2 -5 -9 0
-2 -5 -1 0
-2 -1 -13 0
-2 -1 -9 0
-2 -1 -5 0
9 5 1 2 0
13 5 1 2 0
13 9 1 2 0
13 9 5 2 0
13 9 5 1 0
-10 -14 -15 0
-10 -15 -14 0
-14 -10 -15 0
-14 -15 -10 0
-15 -10 -14 0
-15 -14 -10 0
14 15 0
10 15 0
10 14 0
-6 -7 -11 0
-6 -7 -3 0
-6 -7 -4 0
-6 -7 -8 0
-6 -7 -12 0
-6 -7 -16 0
-6 -11 -7 0
-6 -11 -3 0
-6 -11 -4 0
-6 -11 -8 0
-6 -11 -12 0
-6 -11 -16 0
-6 -3 -7 0
-6 -3 -11 0
-6 -3 -4 0
-6 -3 -8 0
-6 -3 -12 0
-6 -3 -16 0
-6 -4 -7 0
-6 -4 -11 0
-6 -4 -3 0
-6 -4 -8 0
-6 -4 -12 0
-6 -4 -16 0
-6 -8 -7 0
-6 -8 -11 0
-6 -8 -3 0
-6 -8 -4 0
-6 -8 -12 0
-6 -8 -16 0
-6 -12 -7 0
-6 -12 -11 0
-6 -12 -3 0
-6 -12 -4 0
-6 -12 -8 0
-6 -12 -16 0
-6 -16 -7 0
-6 -16 -11 0
-6 -16 -3 0
-6 -16 -4 0
-6 -16 -8 0
-6 -16 -12 0
-7 -6 -11 0
-7 -6 -3 0
-7 -6 -4 0
-7 -6 -8 0
-7 -6 -12 0
-7 -6 -16 0
-7 -11 -6 0
-7 -11 -3 0
-7 -11 -4 0
-7 -11 -8 0
-7 -11 -12 0
-7 -11 -16 0
-7 -3 -6 0
-7 -3 -11 0
-7 -3 -4 0
-7 -3 -8 0
-7 -3 -12 0
-7 -3 -16 0
-7 -4 -6 0
-7 -4 -11 0
-7 -4 -3 0
-7 -4 -8 0
-7 -4 -12 0
-7 -4 -16 0
-7 -8 -6 0
-7 -8 -11 0
-7 -8 -3 0
-7 -8 -4 0
-7 -8 -12 0
-7 -8 -16 0
-7 -12 -6 0
-7 -12 -11 0
-7 -12 -3 0
-7 -12 -4 0
-7 -12 -8 0
-7 -12 -16 0
-7 -16 -6 0
-7 -16 -11 0
-7 -16 -3 0
-7 -16 -4 0
-7 -16 -8 0
-7 -16 -12 0
-11 -6 -7 0
-11 -6 -3 0
-11 -6 -4 0
-11 -6 -8 0
-11 -6 -12 0
-11 -6 -16 0
-11 -7 -6 0
-11 -7 -3 0
-11 -7 -4 0
-11 -7 -8 0
-11 -7 -12 0
-11 -7 -16 0
-11 -3 -6 0
-11 -3 -7 0
-11 -3 -4 0
-11 -3 -8 0
-11 -3 -12 0
-11 -3 -16 0
-11 -4 -6 0
-11 -4 -7 0
-11 -4 -3 0
-11 -4 -8 0
-11 -4 -12 0
-11 -4 -16 0
-11 -8 -6 0
-11 -8 -7 0
-11 -8 -3 0
-11 -8 -4 0
-11 -8 -12 0
-11 -8 -16 0
-11 -12 -6 0
-11 -12 -7 0
-11 -12 -3 0
-11 -12 -4 0
-11 -12 -8 0
-11 -12 -16 0
-11 -16 -6 0
-11 -16 -7 0
-11 -16 -3 0
-11 -16 -4 0
-11 -16 -8 0
-11 -16 -12 0
-3 -6 -7 0
-3 -6 -11 0
-3 -6 -4 0
-3 -6 -8 0
-3 -6 -12 0
-3 -6 -16 0
-3 -7 -6 0
-3 -7 -11 0
-3 -7 -4 0
-3 -7 -8 0
-3 -7 -12 0
-3 -7 -16 0
-3 -11 -6 0
-3 -11 -7 0
-3 -11 -4 0
-3 -11 -8 0
-3 -11 -12 0
-3 -11 -16 0
-3 -4 -6 0
-3 -4 -7 0
-3 -4 -11 0
-3 -4 -8 0
-3 -4 -12 0
-3 -4 -16 0
-3 -8 -6 0
-3 -8 -7 0
-3 -8 -11 0
-3 -8 -4 0
-3 -8 -12 0
-3 -8 -16 0
-3 -12 -6 0
-3 -12 -7 0
-3 -12 -11 0
-3 -12 -4 0
-3 -12 -8 0
-3 -12 -16 0
-3 -16 -6 0
-3 -16 -7 0
-3 -16 -11 0
-3 -16 -4 0
-3 -16 -8 0
-3 -16 -12 0
-4 -6 -7 0
-4 -6 -11 0
-4 -6 -3 0
-4 -6 -8 0
-4 -6 -12 0
-4 -6 -16 0
-4 -7 -6 0
-4 -7 -11 0
-4 -7 -3 0
-4 -7 -8 0
-4 -7 -12 0
-4 -7 -16 0
-4 -11 -6 0
-4 -11 -7 0
-4 -11 -3 0
-4 -11 -8 0
-4 -11 -12 0
-4 -11 -16 0
-4 -3 -6 0
-4 -3 -7 0
-4 -3 -11 0
-4 -3 -8 0
-4 -3 -12 0
-4 -3 -16 0
-4 -8 -6 0
-4 -8 -7 0
-4 -8 -11 0
-4 -8 -3 0
-4 -8 -12 0
-4 -8 -16 0
-4 -12 -6 0
-4 -12 -7 0
-4 -12 -11 0
-4 -12 -3 0
-4 -12 -8 0
-4 -12 -16 0
-4 -16 -6 0
-4 -16 -7 0
-4 -16 -11 0
-4 -16 -3 0
-4 -16 -8 0
-4 -16 -12 0
-8 -6 -7 0
-8 -6 -11 0
-8 -6 -3 0
-8 -6 -4 0
-8 -6 -12 0
-8 -6 -16 0
-8 -7 -6 0
-8 -7 -11 0
-8 -7 -3 0
-8 -7 -4 0
-8 -7 -12 0
-8 -7 -16 0
-8 -11 -6 0
-8 -11 -7 0
-8 -11 -3 0
-8 -11 -4 0
-8 -11 -12 0
-8 -11 -16 0
-8 -3 -6 0
-8 -3 -7 0
-8 -3 -11 0
-8 -3 -4 0
-8 -3 -12 0
-8 -3 -16 0
-8 -4 -6 0
-8 -4 -7 0
-8 -4 -11 0
-8 -4 -3 0
-8 -4 -12 0
-8 -4 -16 0
-8 -12 -6 0
-8 -12 -7 0
-8 -12 -11 0
-8 -12 -3 0
-8 -12 -4 0
-8 -12 -16 0
-8 -16 -6 0
-8 -16 -7 0
-8 -16 -11 0
-8 -16 -3 0
-8 -16 -4 0
-8 -16 -12 0
-12 -6 -7 0
-12 -6 -11 0
-12 -6 -3 0
-12 -6 -4 0
-12 -6 -8 0
-12 -6 -16 0
-12 -7 -6 0
-12 -7 -11 0
-12 -7 -3 0
-12 -7 -4 0
-12 -7 -8 0
-12 -7 -16 0
-12 -11 -6 0
-12 -11 -7 0
-12 -11 -3 0
-12 -11 -4 0
-12 -11 -8 0
-12 -11 -16 0
-12 -3 -6 0
-12 -3 -7 0
-12 -3 -11 0
-12 -3 -4 0
-12 -3 -8 0
-12 -3 -16 0
-12 -4 -6 0
-12 -4 -7 0
-12 -4 -11 0
-12 -4 -3 0
-12 -4 -8 0
-12 -4 -16 0
-12 -8 -6 0
-12 -8 -7 0
-12 -8 -11 0
-12 -8 -3 0
-12 -8 -4 0
-12 -8 -16 0
-12 -16 -6 0
-12 -16 -7 0
-12 -16 -11 0
-12 -16 -3 0
-12 -16 -4 0
-12 -16 -8 0
-16 -6 -7 0
-16 -6 -11 0
-16 -6 -3 0
-16 -6 -4 0
-16 -6 -8 0
-16 -6 -12 0
-16 -7 -6 0
-16 -7 -11 0
-16 -7 -3 0
-16 -7 -4 0
-16 -7 -8 0
-16 -7 -12 0
-16 -11 -6 0
-16 -11 -7 0
-16 -11 -3 0
-16 -11 -4 0
-16 -11 -8 0
-16 -11 -12 0
-16 -3 -6 0
-16 -3 -7 0
-16 -3 -11 0
-16 -3 -4 0
-16 -3 -8 0
-16 -3 -12 0
-16 -4 -6 0
-16 -4 -7 0
-16 -4 -11 0
-16 -4 -3 0
-16 -4 -8 0
-16 -4 -12 0
-16 -8 -6 0
-16 -8 -7 0
-16 -8 -11 0
-16 -8 -3 0
-16 -8 -4 0
-16 -8 -12 0
-16 -12 -6 0
-16 -12 -7 0
-16 -12 -11 0
-16 -12 -3 0
-16 -12 -4 0
-16 -12 -8 0
7 11 3 4 8 12 16 0
6 11 3 4 8 12 16 0
6 7 3 4 8 12 16 0
6 7 11 4 8 12 16 0
6 7 11 3 8 12 16 0
6 7 11 3 4 12 16 0
6 7 11 3 4 8 16 0
6 7 11 3 4 8 12 0
-1 -5 -2 0
-1 -2 -5 0
-1 5 2 0
-2 -6 -3 0
-2 -6 -1 0
-2 -3 -6 0
-2 -3 -1 0
-2 -1 -6 0
-2 -1 -3 0
-2 6 3 1 0
-3 -7 -4 0
-3 -7 -2 0
-3 -4 -7 0
-3 -4 -2 0
-3 -2 -7 0
-3 -2 -4 0
-3 7 4 2 0
-4 -8 -3 0
-4 -3 -8 0
-4 8 3 0
-5 -9 -1 0
-5 -9 -6 0
-5 -1 -9 0
-5 -1 -6 0
-5 -6 -9 0
-5 -6 -1 0
-5 9 1 6 0
-6 -10 -2 0
-6 -10 -7 0
-6 -10 -5 0
-6 -2 -10 0
-6 -2 -7 0
-6 -2 -5 0
-6 -7 -10 0
-6 -7 -2 0
-6 -7 -5 0
-6 -5 -10 0
-6 -5 -2 0
-6 -5 -7 0
-6 10 2 7 5 0
-7 -11 -3 0
-7 -11 -8 0
-7 -11 -6 0
-7 -3 -11 0
-7 -3 -8 0
-7 -3 -6 0
-7 -8 -11 0
-7 -8 -3 0
-7 -8 -6 0
-7 -6 -11 0
-7 -6 -3 0
-7 -6 -8 0
-7 11 3 8 6 0
-8 -12 -4 0
-8 -12 -7 0
-8 -4 -12 0
-8 -4 -7 0
-8 -7 -12 0
-8 -7 -4 0
-8 12 4 7 0
-9 -13 -5 0
-9 -13 -10 0
-9 -5 -13 0
-9 -5 -10 0
-9 -10 -13 0
-9 -10 -5 0
-9 13 5 10 0
-10 -14 -6 0
-10 -14 -11 0
-10 -14 -9 0
-10 -6 -14 0
-10 -6 -11 0
-10 -6 -9 0
-10 -11 -14 0
-10 -11 -6 0
-10 -11 -9 0
-10 -9 -14 0
-10 -9 -6 0
-10 -9 -11 0
-10 14 6 11 9 0
-11 -15 -7 0
-11 -15 -12 0
-11 -15 -10 0
-11 -7 -15 0
-11 -7 -12 0
-11 -7 -10 0
-11 -12 -15 0
-11 -12 -7 0
-11 -12 -10 0
-11 -10 -15 0
-11 -10 -7 0
-11 -10 -12 0
-11 15 7 12 10 0
-12 -16 -8 0
-12 -16 -11 0
-12 -8 -16 0
-12 -8 -11 0
-12 -11 -16 0
-12 -11 -8 0
-12 16 8 11 0
-13 -9 -14 0
-13 -14 -9 0
-13 9 14 0
-14 -10 -15 0
-14 -10 -13 0
-14 -15 -10 0
-14 -15 -13 0
-14 -13 -10 0
-14 -13 -15 0
-14 10 15 13 0
-15 -11 -16 0
-15 -11 -14 0
-15 -16 -11 0
-15 -16 -14 0
-15 -14 -11 0
-15 -14 -16 0
-15 11 16 14 0
-16 -12 -15 0
-16 -15 -12 0
-16 12 15 0
